\ Generated by MPModelProtoExporter
\   Name             : 
\   Format           : Free
\   Constraints      : 174
\   Variables        : 23
\     Binary         : 0
\     Integer        : 0
\     Continuous     : 23
Maximize
 Obj: -4 _1 -1 _2 -1 _3 -1 _4 -1 _5 +1 _0CI_1_2 +1 _0IT1_3 +1 _0IT2_4 +1 _0K_5 +1 _0MI_1_3 +1 _0MI_IDX_1_4 +1 _0MK_1_5 +1 _0N_2 +1 _0T_1 
Subject to
 Mono_Ineq.__H(0CI_1_2)____H(0CI): -1 _0CI +1 _0CI_1_2  >= 0
 Mono_Ineq.__H(0CI_1_2)____H(1): -1 _1 +1 _0CI_1_2  >= 0
 Mono_Ineq.__H(0CI_1_2)____H(2): -1 _2 +1 _0CI_1_2  >= 0
 Additivity_Ineq.__H(0CI_1_2)____H(0CI)___H(1)___H(2): -1 _1 -1 _2 -1 _0CI +1 _0CI_1_2  <= 0
 Mono_Ineq.__H(0IT1_3)____H(0IT1): -1 _0IT1 +1 _0IT1_3  >= 0
 Mono_Ineq.__H(0IT1_3)____H(3): -1 _3 +1 _0IT1_3  >= 0
 Additivity_Ineq.__H(0IT1_3)____H(0IT1)___H(3): -1 _3 -1 _0IT1 +1 _0IT1_3  <= 0
 Mono_Ineq.__H(0IT2_4)____H(0IT2): -1 _0IT2 +1 _0IT2_4  >= 0
 Mono_Ineq.__H(0IT2_4)____H(4): -1 _4 +1 _0IT2_4  >= 0
 Additivity_Ineq.__H(0IT2_4)____H(0IT2)___H(4): -1 _4 -1 _0IT2 +1 _0IT2_4  <= 0
 Mono_Ineq.__H(0K_5)____H(0K): -1 _0K +1 _0K_5  >= 0
 Mono_Ineq.__H(0K_5)____H(5): -1 _5 +1 _0K_5  >= 0
 Additivity_Ineq.__H(0K_5)____H(0K)___H(5): -1 _5 -1 _0K +1 _0K_5  <= 0
 Mono_Ineq.__H(0MI_1_3)____H(0MI): -1 _0MI +1 _0MI_1_3  >= 0
 Mono_Ineq.__H(0MI_1_3)____H(1): -1 _1 +1 _0MI_1_3  >= 0
 Mono_Ineq.__H(0MI_1_3)____H(3): -1 _3 +1 _0MI_1_3  >= 0
 Additivity_Ineq.__H(0MI_1_3)____H(0MI)___H(1)___H(3): -1 _1 -1 _3 -1 _0MI +1 _0MI_1_3  <= 0
 Mono_Ineq.__H(0MI_IDX_1_4)____H(0MI_IDX): -1 _0MI_IDX +1 _0MI_IDX_1_4  >= 0
 Mono_Ineq.__H(0MI_IDX_1_4)____H(1): -1 _1 +1 _0MI_IDX_1_4  >= 0
 Mono_Ineq.__H(0MI_IDX_1_4)____H(4): -1 _4 +1 _0MI_IDX_1_4  >= 0
 Additivity_Ineq.__H(0MI_IDX_1_4)____H(0MI_IDX)___H(1)___H(4): -1 _1 -1 _4 -1 _0MI_IDX +1 _0MI_IDX_1_4  <= 0
 Mono_Ineq.__H(0MK_1_5)____H(0MK): -1 _0MK +1 _0MK_1_5  >= 0
 Mono_Ineq.__H(0MK_1_5)____H(1): -1 _1 +1 _0MK_1_5  >= 0
 Mono_Ineq.__H(0MK_1_5)____H(5): -1 _5 +1 _0MK_1_5  >= 0
 Additivity_Ineq.__H(0MK_1_5)____H(0MK)___H(1)___H(5): -1 _1 -1 _5 -1 _0MK +1 _0MK_1_5  <= 0
 Mono_Ineq.__H(0N_2)____H(0N): -1 _0N +1 _0N_2  >= 0
 Mono_Ineq.__H(0N_2)____H(2): -1 _2 +1 _0N_2  >= 0
 Additivity_Ineq.__H(0N_2)____H(0N)___H(2): -1 _2 -1 _0N +1 _0N_2  <= 0
 Mono_Ineq.__H(0T_1)____H(0T): -1 _0T +1 _0T_1  >= 0
 Mono_Ineq.__H(0T_1)____H(1): -1 _1 +1 _0T_1  >= 0
 Additivity_Ineq.__H(0T_1)____H(0T)___H(1): -1 _1 -1 _0T +1 _0T_1  <= 0
 Statistics_Ineq._1__1___h(0CI_1_2)___0___h(1)____1___log2(21526751.0)_|_1_|_CI.MOVIE_ID: +1 _0CI_1_2  <= 24.3596
 Statistics_Ineq._2__2___h(0CI_1_2)___1___h(1)____2___log2(34234.91053004228)_|_2_|_CI.MOVIE_ID: -1 _1 +2 _0CI_1_2  <= 30.1264
 Statistics_Ineq._3__3___h(0CI_1_2)___2___h(1)____3___log2(4886.5299292489035)_|_3_|_CI.MOVIE_ID: -2 _1 +3 _0CI_1_2  <= 36.7638
 Statistics_Ineq._4__4___h(0CI_1_2)___3___h(1)____4___log2(2538.022075081795)_|_4_|_CI.MOVIE_ID: -3 _1 +4 _0CI_1_2  <= 45.238
 Statistics_Ineq._5__5___h(0CI_1_2)___4___h(1)____5___log2(2121.089627384633)_|_5_|_CI.MOVIE_ID: -4 _1 +5 _0CI_1_2  <= 55.2529
 Statistics_Ineq._6__6___h(0CI_1_2)___5___h(1)____6___log2(1987.769987069849)_|_6_|_CI.MOVIE_ID: -5 _1 +6 _0CI_1_2  <= 65.7416
 Statistics_Ineq._7__7___h(0CI_1_2)___6___h(1)____7___log2(1921.0740334447532)_|_7_|_CI.MOVIE_ID: -6 _1 +7 _0CI_1_2  <= 76.3539
 Statistics_Ineq._8__8___h(0CI_1_2)___7___h(1)____8___log2(1879.7453515128)_|_8_|_CI.MOVIE_ID: -7 _1 +8 _0CI_1_2  <= 87.0106
 Statistics_Ineq._9__9___h(0CI_1_2)___8___h(1)____9___log2(1851.259364856661)_|_9_|_CI.MOVIE_ID: -8 _1 +9 _0CI_1_2  <= 97.6886
 Statistics_Ineq._10__10___h(0CI_1_2)___9___h(1)____10___log2(1830.377763405358)_|_10_|_CI.MOVIE_ID: -9 _1 +10 _0CI_1_2  <= 108.379
 Statistics_Ineq._11__h(0CI_1_2)___h(1)____log2(1741.0)_|_inf_|_CI.MOVIE_ID: -1 _1 +1 _0CI_1_2  <= 10.7657
 Statistics_Ineq._12__1___h(0CI_1_2)___0___h(2)____1___log2(36244344.0)_|_1_|_CI.PERSON_ID: +1 _0CI_1_2  <= 25.1113
 Statistics_Ineq._13__2___h(0CI_1_2)___1___h(2)____2___log2(98126.18903228638)_|_2_|_CI.PERSON_ID: -1 _2 +2 _0CI_1_2  <= 33.1647
 Statistics_Ineq._14__3___h(0CI_1_2)___2___h(2)____3___log2(25134.93556650828)_|_3_|_CI.PERSON_ID: -2 _2 +3 _0CI_1_2  <= 43.8522
 Statistics_Ineq._15__4___h(0CI_1_2)___3___h(2)____4___log2(15791.902423131573)_|_4_|_CI.PERSON_ID: -3 _2 +4 _0CI_1_2  <= 55.7876
 Statistics_Ineq._16__5___h(0CI_1_2)___4___h(2)____5___log2(12971.732840001827)_|_5_|_CI.PERSON_ID: -4 _2 +5 _0CI_1_2  <= 68.3154
 Statistics_Ineq._17__6___h(0CI_1_2)___5___h(2)____6___log2(11781.748943575585)_|_6_|_CI.PERSON_ID: -5 _2 +6 _0CI_1_2  <= 81.1456
 Statistics_Ineq._18__7___h(0CI_1_2)___6___h(2)____7___log2(11182.212762251316)_|_7_|_CI.PERSON_ID: -6 _2 +7 _0CI_1_2  <= 94.1424
 Statistics_Ineq._19__8___h(0CI_1_2)___7___h(2)____8___log2(10845.907300663903)_|_8_|_CI.PERSON_ID: -7 _2 +8 _0CI_1_2  <= 107.239
 Statistics_Ineq._20__9___h(0CI_1_2)___8___h(2)____9___log2(10643.766168601067)_|_9_|_CI.PERSON_ID: -8 _2 +9 _0CI_1_2  <= 120.399
 Statistics_Ineq._21__10___h(0CI_1_2)___9___h(2)____10___log2(10516.456582958986)_|_10_|_CI.PERSON_ID: -9 _2 +10 _0CI_1_2  <= 133.604
 Statistics_Ineq._22__h(0CI_1_2)___h(2)____log2(10249.0)_|_inf_|_CI.PERSON_ID: -1 _2 +1 _0CI_1_2  <= 13.3232
 Statistics_Ineq._23__1___h(0IT1_3)___0___h(3)____1___log2(113.0)_|_1_|_IT1.ID: +1 _0IT1_3  <= 6.82018
 Statistics_Ineq._24__2___h(0IT1_3)___1___h(3)____2___log2(10.63014581273465)_|_2_|_IT1.ID: -1 _3 +2 _0IT1_3  <= 6.82018
 Statistics_Ineq._25__3___h(0IT1_3)___2___h(3)____3___log2(4.834588127111639)_|_3_|_IT1.ID: -2 _3 +3 _0IT1_3  <= 6.82018
 Statistics_Ineq._26__4___h(0IT1_3)___3___h(3)____4___log2(3.260390438695134)_|_4_|_IT1.ID: -3 _3 +4 _0IT1_3  <= 6.82018
 Statistics_Ineq._27__5___h(0IT1_3)___4___h(3)____5___log2(2.574042354407865)_|_5_|_IT1.ID: -4 _3 +5 _0IT1_3  <= 6.82018
 Statistics_Ineq._28__6___h(0IT1_3)___5___h(3)____6___log2(2.198769684871892)_|_6_|_IT1.ID: -5 _3 +6 _0IT1_3  <= 6.82018
 Statistics_Ineq._29__7___h(0IT1_3)___6___h(3)____7___log2(1.9647030552069988)_|_7_|_IT1.ID: -6 _3 +7 _0IT1_3  <= 6.82018
 Statistics_Ineq._30__8___h(0IT1_3)___7___h(3)____8___log2(1.8056551272862529)_|_8_|_IT1.ID: -7 _3 +8 _0IT1_3  <= 6.82018
 Statistics_Ineq._31__9___h(0IT1_3)___8___h(3)____9___log2(1.6909074089110399)_|_9_|_IT1.ID: -8 _3 +9 _0IT1_3  <= 6.82018
 Statistics_Ineq._32__10___h(0IT1_3)___9___h(3)____10___log2(1.6043822345089294)_|_10_|_IT1.ID: -9 _3 +10 _0IT1_3  <= 6.82018
 Statistics_Ineq._33__h(0IT1_3)___h(3)____log2(1.0)_|_inf_|_IT1.ID: -1 _3 +1 _0IT1_3  <= 0
 Statistics_Ineq._34__1___h(0IT2_4)___0___h(4)____1___log2(8.0)_|_1_|_IT2.ID: +1 _0IT2_4  <= 3
 Statistics_Ineq._35__2___h(0IT2_4)___1___h(4)____2___log2(2.8284271247461903)_|_2_|_IT2.ID: -1 _4 +2 _0IT2_4  <= 3
 Statistics_Ineq._36__3___h(0IT2_4)___2___h(4)____3___log2(2.0)_|_3_|_IT2.ID: -2 _4 +3 _0IT2_4  <= 3
 Statistics_Ineq._37__4___h(0IT2_4)___3___h(4)____4___log2(1.681792830507429)_|_4_|_IT2.ID: -3 _4 +4 _0IT2_4  <= 3
 Statistics_Ineq._38__5___h(0IT2_4)___4___h(4)____5___log2(1.5157165665103982)_|_5_|_IT2.ID: -4 _4 +5 _0IT2_4  <= 3
 Statistics_Ineq._39__6___h(0IT2_4)___5___h(4)____6___log2(1.414213562373095)_|_6_|_IT2.ID: -5 _4 +6 _0IT2_4  <= 3
 Statistics_Ineq._40__7___h(0IT2_4)___6___h(4)____7___log2(1.3459001926323562)_|_7_|_IT2.ID: -6 _4 +7 _0IT2_4  <= 3
 Statistics_Ineq._41__8___h(0IT2_4)___7___h(4)____8___log2(1.2968395546510096)_|_8_|_IT2.ID: -7 _4 +8 _0IT2_4  <= 3
 Statistics_Ineq._42__9___h(0IT2_4)___8___h(4)____9___log2(1.2599210498948732)_|_9_|_IT2.ID: -8 _4 +9 _0IT2_4  <= 3
 Statistics_Ineq._43__10___h(0IT2_4)___9___h(4)____10___log2(1.2311444133449163)_|_10_|_IT2.ID: -9 _4 +10 _0IT2_4  <= 3
 Statistics_Ineq._44__h(0IT2_4)___h(4)____log2(1.0)_|_inf_|_IT2.ID: -1 _4 +1 _0IT2_4  <= 0
 Statistics_Ineq._45__1___h(0K_5)___0___h(5)____1___log2(134170.0)_|_1_|_K.ID: +1 _0K_5  <= 17.0337
 Statistics_Ineq._46__2___h(0K_5)___1___h(5)____2___log2(366.29223305988893)_|_2_|_K.ID: -1 _5 +2 _0K_5  <= 17.0337
 Statistics_Ineq._47__3___h(0K_5)___2___h(5)____3___log2(51.19393035144834)_|_3_|_K.ID: -2 _5 +3 _0K_5  <= 17.0337
 Statistics_Ineq._48__4___h(0K_5)___3___h(5)____4___log2(19.138762579119085)_|_4_|_K.ID: -3 _5 +4 _0K_5  <= 17.0337
 Statistics_Ineq._49__5___h(0K_5)___4___h(5)____5___log2(10.605498428686793)_|_5_|_K.ID: -4 _5 +5 _0K_5  <= 17.0337
 Statistics_Ineq._50__6___h(0K_5)___5___h(5)____6___log2(7.154993385842389)_|_6_|_K.ID: -5 _5 +6 _0K_5  <= 17.0337
 Statistics_Ineq._51__7___h(0K_5)___6___h(5)____7___log2(5.401597291274521)_|_7_|_K.ID: -6 _5 +7 _0K_5  <= 17.0337
 Statistics_Ineq._52__8___h(0K_5)___7___h(5)____8___log2(4.374787146721436)_|_8_|_K.ID: -7 _5 +8 _0K_5  <= 17.0337
 Statistics_Ineq._53__9___h(0K_5)___8___h(5)____9___log2(3.713124327690797)_|_9_|_K.ID: -8 _5 +9 _0K_5  <= 17.0337
 Statistics_Ineq._54__10___h(0K_5)___9___h(5)____10___log2(3.2566084242178692)_|_10_|_K.ID: -9 _5 +10 _0K_5  <= 17.0337
 Statistics_Ineq._55__h(0K_5)___h(5)____log2(1.0)_|_inf_|_K.ID: -1 _5 +1 _0K_5  <= 0
 Statistics_Ineq._56__1___h(0MI_1_3)___0___h(1)____1___log2(8927314.0)_|_1_|_MI.MOVIE_ID: +1 _0MI_1_3  <= 23.0898
 Statistics_Ineq._57__2___h(0MI_1_3)___1___h(1)____2___log2(22868.47791174568)_|_2_|_MI.MOVIE_ID: -1 _1 +2 _0MI_1_3  <= 28.9621
 Statistics_Ineq._58__3___h(0MI_1_3)___2___h(1)____3___log2(5534.065831001275)_|_3_|_MI.MOVIE_ID: -2 _1 +3 _0MI_1_3  <= 37.3024
 Statistics_Ineq._59__4___h(0MI_1_3)___3___h(1)____4___log2(3539.633518378824)_|_4_|_MI.MOVIE_ID: -3 _1 +4 _0MI_1_3  <= 47.1575
 Statistics_Ineq._60__5___h(0MI_1_3)___4___h(1)____5___log2(3106.3040766980107)_|_5_|_MI.MOVIE_ID: -4 _1 +5 _0MI_1_3  <= 58.0049
 Statistics_Ineq._61__6___h(0MI_1_3)___5___h(1)____6___log2(2993.7440706421207)_|_6_|_MI.MOVIE_ID: -5 _1 +6 _0MI_1_3  <= 69.2864
 Statistics_Ineq._62__7___h(0MI_1_3)___6___h(1)____7___log2(2958.7564854889574)_|_7_|_MI.MOVIE_ID: -6 _1 +7 _0MI_1_3  <= 80.7154
 Statistics_Ineq._63__8___h(0MI_1_3)___7___h(1)____8___log2(2946.1084017705402)_|_8_|_MI.MOVIE_ID: -7 _1 +8 _0MI_1_3  <= 92.1968
 Statistics_Ineq._64__9___h(0MI_1_3)___8___h(1)____9___log2(2941.037811742483)_|_9_|_MI.MOVIE_ID: -8 _1 +9 _0MI_1_3  <= 103.699
 Statistics_Ineq._65__10___h(0MI_1_3)___9___h(1)____10___log2(2938.861369246534)_|_10_|_MI.MOVIE_ID: -9 _1 +10 _0MI_1_3  <= 115.21
 Statistics_Ineq._66__h(0MI_1_3)___h(1)____log2(2937.0)_|_inf_|_MI.MOVIE_ID: -1 _1 +1 _0MI_1_3  <= 11.5201
 Statistics_Ineq._67__1___h(0MI_1_3)___0___h(3)____1___log2(14835720.0)_|_1_|_MI.INFO_TYPE_ID: +1 _0MI_1_3  <= 23.8226
 Statistics_Ineq._68__2___h(0MI_1_3)___1___h(3)____2___log2(4572034.223464868)_|_2_|_MI.INFO_TYPE_ID: -1 _3 +2 _0MI_1_3  <= 44.2488
 Statistics_Ineq._69__3___h(0MI_1_3)___2___h(3)____3___log2(3486243.0281909658)_|_3_|_MI.INFO_TYPE_ID: -2 _3 +3 _0MI_1_3  <= 65.1997
 Statistics_Ineq._70__4___h(0MI_1_3)___3___h(3)____4___log2(3193457.0484238626)_|_4_|_MI.INFO_TYPE_ID: -3 _3 +4 _0MI_1_3  <= 86.4268
 Statistics_Ineq._71__5___h(0MI_1_3)___4___h(3)____5___log2(3095215.672236246)_|_5_|_MI.INFO_TYPE_ID: -4 _3 +5 _0MI_1_3  <= 107.808
 Statistics_Ineq._72__6___h(0MI_1_3)___5___h(3)____6___log2(3059428.0080923685)_|_6_|_MI.INFO_TYPE_ID: -5 _3 +6 _0MI_1_3  <= 129.269
 Statistics_Ineq._73__7___h(0MI_1_3)___6___h(3)____7___log2(3045794.1446837164)_|_7_|_MI.INFO_TYPE_ID: -6 _3 +7 _0MI_1_3  <= 150.769
 Statistics_Ineq._74__8___h(0MI_1_3)___7___h(3)____8___log2(3040432.0968020344)_|_8_|_MI.INFO_TYPE_ID: -7 _3 +8 _0MI_1_3  <= 172.287
 Statistics_Ineq._75__9___h(0MI_1_3)___8___h(3)____9___log2(3038268.697191814)_|_9_|_MI.INFO_TYPE_ID: -8 _3 +9 _0MI_1_3  <= 193.813
 Statistics_Ineq._76__10___h(0MI_1_3)___9___h(3)____10___log2(3037376.9198407093)_|_10_|_MI.INFO_TYPE_ID: -9 _3 +10 _0MI_1_3  <= 215.344
 Statistics_Ineq._77__h(0MI_1_3)___h(3)____log2(3036719.0)_|_inf_|_MI.INFO_TYPE_ID: -1 _3 +1 _0MI_1_3  <= 21.5341
 Statistics_Ineq._78__1___h(0MI_IDX_1_4)___0___h(1)____1___log2(1380035.0)_|_1_|_MI_IDX.MOVIE_ID: +1 _0MI_IDX_1_4  <= 20.3963
 Statistics_Ineq._79__2___h(0MI_IDX_1_4)___1___h(1)____2___log2(2034.9803438854146)_|_2_|_MI_IDX.MOVIE_ID: -1 _1 +2 _0MI_IDX_1_4  <= 21.9816
 Statistics_Ineq._80__3___h(0MI_IDX_1_4)___2___h(1)____3___log2(231.63047471014258)_|_3_|_MI_IDX.MOVIE_ID: -2 _1 +3 _0MI_IDX_1_4  <= 23.567
 Statistics_Ineq._81__4___h(0MI_IDX_1_4)___3___h(1)____4___log2(78.14937952029435)_|_4_|_MI_IDX.MOVIE_ID: -3 _1 +4 _0MI_IDX_1_4  <= 25.1527
 Statistics_Ineq._82__5___h(0MI_IDX_1_4)___4___h(1)____5___log2(40.72080256273645)_|_5_|_MI_IDX.MOVIE_ID: -4 _1 +5 _0MI_IDX_1_4  <= 26.7385
 Statistics_Ineq._83__6___h(0MI_IDX_1_4)___5___h(1)____6___log2(26.368848575018564)_|_6_|_MI_IDX.MOVIE_ID: -5 _1 +6 _0MI_IDX_1_4  <= 28.3246
 Statistics_Ineq._84__7___h(0MI_IDX_1_4)___6___h(1)____7___log2(19.333202674531634)_|_7_|_MI_IDX.MOVIE_ID: -6 _1 +7 _0MI_IDX_1_4  <= 29.9111
 Statistics_Ineq._85__8___h(0MI_IDX_1_4)___7___h(1)____8___log2(15.319065986841762)_|_8_|_MI_IDX.MOVIE_ID: -7 _1 +8 _0MI_IDX_1_4  <= 31.4981
 Statistics_Ineq._86__9___h(0MI_IDX_1_4)___8___h(1)____9___log2(12.783317244944898)_|_9_|_MI_IDX.MOVIE_ID: -8 _1 +9 _0MI_IDX_1_4  <= 33.0857
 Statistics_Ineq._87__10___h(0MI_IDX_1_4)___9___h(1)____10___log2(11.061128564875332)_|_10_|_MI_IDX.MOVIE_ID: -9 _1 +10 _0MI_IDX_1_4  <= 34.6743
 Statistics_Ineq._88__h(0MI_IDX_1_4)___h(1)____log2(4.0)_|_inf_|_MI_IDX.MOVIE_ID: -1 _1 +1 _0MI_IDX_1_4  <= 2
 Statistics_Ineq._89__1___h(0MI_IDX_1_4)___0___h(4)____1___log2(1380035.0)_|_1_|_MI_IDX.INFO_TYPE_ID: +1 _0MI_IDX_1_4  <= 20.3963
 Statistics_Ineq._90__2___h(0MI_IDX_1_4)___1___h(4)____2___log2(796613.5069624416)_|_2_|_MI_IDX.INFO_TYPE_ID: -1 _4 +2 _0MI_IDX_1_4  <= 39.207
 Statistics_Ineq._91__3___h(0MI_IDX_1_4)___2___h(4)____3___log2(663326.6336354722)_|_3_|_MI_IDX.INFO_TYPE_ID: -2 _4 +3 _0MI_IDX_1_4  <= 58.0181
 Statistics_Ineq._92__4___h(0MI_IDX_1_4)___3___h(4)____4___log2(605295.3404071796)_|_4_|_MI_IDX.INFO_TYPE_ID: -3 _4 +4 _0MI_IDX_1_4  <= 76.8291
 Statistics_Ineq._93__5___h(0MI_IDX_1_4)___4___h(4)____5___log2(572942.8024026672)_|_5_|_MI_IDX.INFO_TYPE_ID: -4 _4 +5 _0MI_IDX_1_4  <= 95.6402
 Statistics_Ineq._94__6___h(0MI_IDX_1_4)___5___h(4)____6___log2(552340.9291093226)_|_6_|_MI_IDX.INFO_TYPE_ID: -5 _4 +6 _0MI_IDX_1_4  <= 114.451
 Statistics_Ineq._95__7___h(0MI_IDX_1_4)___6___h(4)____7___log2(538080.4290580386)_|_7_|_MI_IDX.INFO_TYPE_ID: -6 _4 +7 _0MI_IDX_1_4  <= 133.262
 Statistics_Ineq._96__8___h(0MI_IDX_1_4)___7___h(4)____8___log2(527627.1974005605)_|_8_|_MI_IDX.INFO_TYPE_ID: -7 _4 +8 _0MI_IDX_1_4  <= 152.073
 Statistics_Ineq._97__9___h(0MI_IDX_1_4)___8___h(4)____9___log2(519637.5060761928)_|_9_|_MI_IDX.INFO_TYPE_ID: -8 _4 +9 _0MI_IDX_1_4  <= 170.884
 Statistics_Ineq._98__10___h(0MI_IDX_1_4)___9___h(4)____10___log2(513332.9508175439)_|_10_|_MI_IDX.INFO_TYPE_ID: -9 _4 +10 _0MI_IDX_1_4  <= 189.695
 Statistics_Ineq._99__h(0MI_IDX_1_4)___h(4)____log2(459925.0)_|_inf_|_MI_IDX.INFO_TYPE_ID: -1 _4 +1 _0MI_IDX_1_4  <= 18.811
 Statistics_Ineq._100__1___h(0MK_1_5)___0___h(1)____1___log2(4523930.0)_|_1_|_MK.MOVIE_ID: +1 _0MK_1_5  <= 22.1091
 Statistics_Ineq._101__2___h(0MK_1_5)___1___h(1)____2___log2(16185.9873965106)_|_2_|_MK.MOVIE_ID: -1 _1 +2 _0MK_1_5  <= 27.9649
 Statistics_Ineq._102__3___h(0MK_1_5)___2___h(1)____3___log2(3343.8264818119123)_|_3_|_MK.MOVIE_ID: -2 _1 +3 _0MK_1_5  <= 35.1219
 Statistics_Ineq._103__4___h(0MK_1_5)___3___h(1)____4___log2(1671.5408115873324)_|_4_|_MK.MOVIE_ID: -3 _1 +4 _0MK_1_5  <= 42.8279
 Statistics_Ineq._104__5___h(0MK_1_5)___4___h(1)____5___log2(1148.4788492748567)_|_5_|_MK.MOVIE_ID: -4 _1 +5 _0MK_1_5  <= 50.8275
 Statistics_Ineq._105__6___h(0MK_1_5)___5___h(1)____6___log2(914.941738694339)_|_6_|_MK.MOVIE_ID: -5 _1 +6 _0MK_1_5  <= 59.0252
 Statistics_Ineq._106__7___h(0MK_1_5)___6___h(1)____7___log2(789.6812830724535)_|_7_|_MK.MOVIE_ID: -6 _1 +7 _0MK_1_5  <= 67.3759
 Statistics_Ineq._107__8___h(0MK_1_5)___7___h(1)____8___log2(714.8129944782834)_|_8_|_MK.MOVIE_ID: -7 _1 +8 _0MK_1_5  <= 75.8514
 Statistics_Ineq._108__9___h(0MK_1_5)___8___h(1)____9___log2(666.8052492847414)_|_9_|_MK.MOVIE_ID: -8 _1 +9 _0MK_1_5  <= 84.4301
 Statistics_Ineq._109__10___h(0MK_1_5)___9___h(1)____10___log2(634.4708714390166)_|_10_|_MK.MOVIE_ID: -9 _1 +10 _0MK_1_5  <= 93.0941
 Statistics_Ineq._110__h(0MK_1_5)___h(1)____log2(540.0)_|_inf_|_MK.MOVIE_ID: -1 _1 +1 _0MK_1_5  <= 9.07682
 Statistics_Ineq._111__1___h(0MK_1_5)___0___h(5)____1___log2(4523930.0)_|_1_|_MK.KEYWORD_ID: +1 _0MK_1_5  <= 22.1091
 Statistics_Ineq._112__2___h(0MK_1_5)___1___h(5)____2___log2(142540.5972767057)_|_2_|_MK.KEYWORD_ID: -1 _5 +2 _0MK_1_5  <= 34.242
 Statistics_Ineq._113__3___h(0MK_1_5)___2___h(5)____3___log2(91933.95257125433)_|_3_|_MK.KEYWORD_ID: -2 _5 +3 _0MK_1_5  <= 49.4649
 Statistics_Ineq._114__4___h(0MK_1_5)___3___h(5)____4___log2(82003.06320560009)_|_4_|_MK.KEYWORD_ID: -3 _5 +4 _0MK_1_5  <= 65.2936
 Statistics_Ineq._115__5___h(0MK_1_5)___4___h(5)____5___log2(78043.67590316865)_|_5_|_MK.KEYWORD_ID: -4 _5 +5 _0MK_1_5  <= 81.26
 Statistics_Ineq._116__6___h(0MK_1_5)___5___h(5)____6___log2(76018.0546797557)_|_6_|_MK.KEYWORD_ID: -5 _5 +6 _0MK_1_5  <= 97.2843
 Statistics_Ineq._117__7___h(0MK_1_5)___6___h(5)____7___log2(74849.51552507188)_|_7_|_MK.KEYWORD_ID: -6 _5 +7 _0MK_1_5  <= 113.342
 Statistics_Ineq._118__8___h(0MK_1_5)___7___h(5)____8___log2(74123.73792740938)_|_8_|_MK.KEYWORD_ID: -7 _5 +8 _0MK_1_5  <= 129.421
 Statistics_Ineq._119__9___h(0MK_1_5)___8___h(5)____9___log2(73649.49002095767)_|_9_|_MK.KEYWORD_ID: -8 _5 +9 _0MK_1_5  <= 145.515
 Statistics_Ineq._120__10___h(0MK_1_5)___9___h(5)____10___log2(73328.0635960675)_|_10_|_MK.KEYWORD_ID: -9 _5 +10 _0MK_1_5  <= 161.621
 Statistics_Ineq._121__h(0MK_1_5)___h(5)____log2(72496.0)_|_inf_|_MK.KEYWORD_ID: -1 _5 +1 _0MK_1_5  <= 16.1456
 Statistics_Ineq._122__1___h(0N_2)___0___h(2)____1___log2(4167491.0)_|_1_|_N.ID: +1 _0N_2  <= 21.9907
 Statistics_Ineq._123__2___h(0N_2)___1___h(2)____2___log2(2041.4433619378226)_|_2_|_N.ID: -1 _2 +2 _0N_2  <= 21.9907
 Statistics_Ineq._124__3___h(0N_2)___2___h(2)____3___log2(160.9255085356384)_|_3_|_N.ID: -2 _2 +3 _0N_2  <= 21.9907
 Statistics_Ineq._125__4___h(0N_2)___3___h(2)____4___log2(45.18233462248075)_|_4_|_N.ID: -3 _2 +4 _0N_2  <= 21.9907
 Statistics_Ineq._126__5___h(0N_2)___4___h(2)____5___log2(21.08506451195046)_|_5_|_N.ID: -4 _2 +5 _0N_2  <= 21.9907
 Statistics_Ineq._127__6___h(0N_2)___5___h(2)____6___log2(12.685641825924236)_|_6_|_N.ID: -5 _2 +6 _0N_2  <= 21.9907
 Statistics_Ineq._128__7___h(0N_2)___6___h(2)____7___log2(8.824627484820633)_|_7_|_N.ID: -6 _2 +7 _0N_2  <= 21.9907
 Statistics_Ineq._129__8___h(0N_2)___7___h(2)____8___log2(6.721780613980253)_|_8_|_N.ID: -7 _2 +8 _0N_2  <= 21.9907
 Statistics_Ineq._130__9___h(0N_2)___8___h(2)____9___log2(5.439282684304322)_|_9_|_N.ID: -8 _2 +9 _0N_2  <= 21.9907
 Statistics_Ineq._131__10___h(0N_2)___9___h(2)____10___log2(4.591847614190878)_|_10_|_N.ID: -9 _2 +10 _0N_2  <= 21.9907
 Statistics_Ineq._132__h(0N_2)___h(2)____log2(1.0)_|_inf_|_N.ID: -1 _2 +1 _0N_2  <= 0
 Statistics_Ineq._133__1___h(0T_1)___0___h(1)____1___log2(524288.0)_|_1_|_T.ID: +1 _0T_1  <= 19
 Statistics_Ineq._134__2___h(0T_1)___1___h(1)____2___log2(724.0773439350247)_|_2_|_T.ID: -1 _1 +2 _0T_1  <= 19
 Statistics_Ineq._135__3___h(0T_1)___2___h(1)____3___log2(80.63494719327186)_|_3_|_T.ID: -2 _1 +3 _0T_1  <= 19
 Statistics_Ineq._136__4___h(0T_1)___3___h(1)____4___log2(26.908685288118864)_|_4_|_T.ID: -3 _1 +4 _0T_1  <= 19
 Statistics_Ineq._137__5___h(0T_1)___4___h(1)____5___log2(13.928809012737988)_|_5_|_T.ID: -4 _1 +5 _0T_1  <= 19
 Statistics_Ineq._138__6___h(0T_1)___5___h(1)____6___log2(8.979696386474982)_|_6_|_T.ID: -5 _1 +6 _0T_1  <= 19
 Statistics_Ineq._139__7___h(0T_1)___6___h(1)____7___log2(6.562682848061103)_|_7_|_T.ID: -6 _1 +7 _0T_1  <= 19
 Statistics_Ineq._140__8___h(0T_1)___7___h(1)____8___log2(5.187358218604039)_|_8_|_T.ID: -7 _1 +8 _0T_1  <= 19
 Statistics_Ineq._141__9___h(0T_1)___8___h(1)____9___log2(4.320238955569224)_|_9_|_T.ID: -8 _1 +9 _0T_1  <= 19
 Statistics_Ineq._142__10___h(0T_1)___9___h(1)____10___log2(3.73213196614723)_|_10_|_T.ID: -9 _1 +10 _0T_1  <= 19
 Statistics_Ineq._143__h(0T_1)___h(1)____log2(1.0)_|_inf_|_T.ID: -1 _1 +1 _0T_1  <= 0
Bounds
 0 <= _1
 0 <= _2
 0 <= _3
 0 <= _4
 0 <= _5
 0 <= _0CI
 0 <= _0CI_1_2
 0 <= _0IT1
 0 <= _0IT1_3
 0 <= _0IT2
 0 <= _0IT2_4
 0 <= _0K
 0 <= _0K_5
 0 <= _0MI
 0 <= _0MI_1_3
 0 <= _0MI_IDX
 0 <= _0MI_IDX_1_4
 0 <= _0MK
 0 <= _0MK_1_5
 0 <= _0N
 0 <= _0N_2
 0 <= _0T
 0 <= _0T_1
End
